p cnf 20 96
1 2 3 0
1 -2 -3 0
-1 2 -3 0
-1 -2 3 0
1 4 5 6 -7 0
1 4 5 -6 7 0
1 4 -5 6 7 0
1 4 -5 -6 -7 0
1 -4 5 6 7 0
1 -4 5 -6 -7 0
1 -4 -5 6 -7 0
1 -4 -5 -6 7 0
-1 4 5 6 7 0
-1 4 5 -6 -7 0
-1 4 -5 6 -7 0
-1 4 -5 -6 7 0
-1 -4 5 6 -7 0
-1 -4 5 -6 7 0
-1 -4 -5 6 7 0
-1 -4 -5 -6 -7 0
2 8 9 10 -11 0
2 8 9 -10 11 0
2 8 -9 10 11 0
2 8 -9 -10 -11 0
2 -8 9 10 11 0
2 -8 9 -10 -11 0
2 -8 -9 10 -11 0
2 -8 -9 -10 11 0
-2 8 9 10 11 0
-2 8 9 -10 -11 0
-2 8 -9 10 -11 0
-2 8 -9 -10 11 0
-2 -8 9 10 -11 0
-2 -8 9 -10 11 0
-2 -8 -9 10 11 0
-2 -8 -9 -10 -11 0
4 12 13 0
4 -12 -13 0
-4 12 -13 0
-4 -12 13 0
3 5 14 0
3 -5 -14 0
-3 5 -14 0
-3 -5 14 0
15 16 17 0
15 -16 -17 0
-15 16 -17 0
-15 -16 17 0
8 12 18 -19 0
8 12 -18 19 0
8 -12 18 19 0
8 -12 -18 -19 0
-8 12 18 19 0
-8 12 -18 -19 0
-8 -12 18 -19 0
-8 -12 -18 19 0
6 9 13 15 -18 0
6 9 13 -15 18 0
6 9 -13 15 18 0
6 9 -13 -15 -18 0
6 -9 13 15 18 0
6 -9 13 -15 -18 0
6 -9 -13 15 -18 0
6 -9 -13 -15 18 0
-6 9 13 15 18 0
-6 9 13 -15 -18 0
-6 9 -13 15 -18 0
-6 9 -13 -15 18 0
-6 -9 13 15 -18 0
-6 -9 13 -15 18 0
-6 -9 -13 15 18 0
-6 -9 -13 -15 -18 0
10 16 19 -20 0
10 16 -19 20 0
10 -16 19 20 0
10 -16 -19 -20 0
-10 16 19 20 0
-10 16 -19 -20 0
-10 -16 19 -20 0
-10 -16 -19 20 0
7 11 14 17 -20 0
7 11 14 -17 20 0
7 11 -14 17 20 0
7 11 -14 -17 -20 0
7 -11 14 17 20 0
7 -11 14 -17 -20 0
7 -11 -14 17 -20 0
7 -11 -14 -17 20 0
-7 11 14 17 20 0
-7 11 14 -17 -20 0
-7 11 -14 17 -20 0
-7 11 -14 -17 20 0
-7 -11 14 17 -20 0
-7 -11 14 -17 20 0
-7 -11 -14 17 20 0
-7 -11 -14 -17 -20 0
